Instance name : RC204
Authors : bauke
Date :    21-05-13
Reference : N/A
Solution
Route 1 : 69 98 82 10 11 15 16 17 47 14 12 53 60 78 73 79 7 8 46 45 5 3 1 4 6 2 88 55 100 70 61 68
Route 2 : 80 91 92 94 62 51 89 76 18 23 21 48 19 49 20 57 99 52 87 9 13 86 74 59 97 75 58 77 25 24 22 83 65 90
Route 3 : 81 96 54 41 39 42 44 43 40 36 35 37 38 72 71 93 67 84 85 63 33 32 30 28 26 27 29 31 34 50 95 56 64 66

